NAME : optical-integer.standard.0.tour
COMMENT : Length = 0
TYPE : TOUR
DIMENSION : 174
TOUR_SECTION
165
127
99
129
161
167
162
160
132
170
49
171
130
98
134
115
55
16
66
24
89
9
21
143
83
25
12
27
78
22
92
32
19
82
107
37
144
116
139
111
47
120
166
110
44
104
54
105
141
137
106
123
121
114
3
118
28
13
90
29
41
142
33
69
79
30
85
150
67
39
152
52
157
5
146
53
109
4
108
50
138
119
136
124
103
122
164
133
93
168
45
172
96
94
128
86
113
38
57
18
153
81
151
31
64
84
95
36
70
40
155
65
6
88
1
51
158
87
148
72
8
73
43
145
112
11
61
26
23
75
147
63
35
34
46
91
56
42
7
10
156
14
59
154
76
80
20
68
74
62
60
58
17
15
149
71
77
2
140
117
159
174
126
101
102
48
163
97
125
100
131
169
135
173
-1
EOF
